<instance format="XCSP3" type="CSP">
  <variables>
    <var id="x0"> 6 7 12 13 </var>
    <var id="x1"> 3 12 16 </var>
    <var id="x2"> 3 6 7 13 14 16 </var>
    <var id="x3"> 2 3 7 14 16 </var>
    <var id="x4"> 2 12..14 </var>
    <var id="x5"> 3 16 </var>
    <var id="x6"> 6 7 12..14 </var>
    <var id="x7"> 2 13 16 </var>
    <var id="x8"> 3 13 17 </var>
    <var id="x9"> 0 7 12 13 </var>
    <var id="x10"> 3 12 15 </var>
    <var id="x11"> 0 3 7 12 13 </var>
    <var id="x12"> 0 3 12 15 </var>
    <var id="x13"> 3 7 14 </var>
    <var id="x14"> 3 13 15 </var>
    <var id="x15"> 7 13 14 17 </var>
    <var id="x16"> 2 11 13 16 </var>
    <var id="x17"> 6 7 11 13 </var>
    <var id="x18"> 15 16 </var>
    <var id="x19"> 6 7 13 16 </var>
    <var id="x20"> 1 7 11 </var>
    <var id="x21"> 1 7 11 15 </var>
    <var id="x22"> 2 7 13 16 </var>
    <var id="x23"> 1 6 7 13 </var>
    <var id="x24"> 7 12 16 </var>
    <var id="x25"> 1 4 7 12 14 </var>
    <var id="x26"> 1 6 12 16 </var>
    <var id="x27"> 4 12 14 </var>
    <var id="x28"> 6 7 17 </var>
    <var id="x29"> 1 12 </var>
    <var id="x30"> 4 7 14 16 17 </var>
    <var id="x31"> 4 16 </var>
    <var id="x32"> 3 8 12 13 </var>
    <var id="x33"> 8 11 14 </var>
    <var id="x34"> 3 6 14 </var>
    <var id="x35"> 3 6 8 13 </var>
    <var id="x36"> 3 8 9 11 </var>
    <var id="x37"> 3 6 8 11 </var>
    <var id="x38"> 3 11..13 </var>
    <var id="x39"> 6 8 12..14 </var>
    <var id="x40"> 0 6..8 </var>
    <var id="x41"> 0 6 7 16 </var>
    <var id="x42"> 0 7 8 16 </var>
    <var id="x43"> 0 6 15 16 </var>
    <var id="x44"> 6 7 16 </var>
    <var id="x45"> 6 8 15 </var>
    <var id="x46"> 5 8 15 16 </var>
    <var id="x47"> 2 3 9 </var>
    <var id="x48"> 3 4 8 9 </var>
    <var id="x49"> 0 2 4 8 9 </var>
    <var id="x50"> 3 7 8 </var>
    <var id="x51"> 2 3 </var>
    <var id="x52"> 2 4 7 8 </var>
    <var id="x53"> 0 7 8 </var>
    <var id="x54"> 3 9 11 13 16 </var>
    <var id="x55"> 3 8 13 16 </var>
    <var id="x56"> 1 3 9 16 </var>
    <var id="x57"> 1 3 4 16 </var>
    <var id="x58"> 1 3 4 8 13 </var>
    <var id="x59"> 3 8 9 11 16 </var>
    <var id="x60"> 3 8 11 </var>
    <var id="x61"> 4 8 13 16 </var>
    <var id="x62"> 5 11 16 17 </var>
    <var id="x63"> 1 12 15 16 </var>
    <var id="x64"> 5 11 14 16 17 </var>
    <var id="x65"> 12 14 </var>
    <var id="x66"> 1 11 14 15 17 </var>
    <var id="x67"> 1 14 16 </var>
    <var id="x68"> 1 11 12 15 </var>
    <var id="x69"> 14 16 17 </var>
    <var id="x70"> 2 3 9 11 </var>
    <var id="x71"> 3 7 </var>
    <var id="x72"> 4 7 11 </var>
    <var id="x73"> 2 3 7 11 </var>
    <var id="x74"> 2 4 8 9 </var>
    <var id="x75"> 2..4 7 </var>
    <var id="x76"> 7 8 </var>
    <var id="x77"> 2 4 8 9 15 </var>
    <var id="x78"> 2 13 16 </var>
    <var id="x79"> 1 14 </var>
    <var id="x80"> 0 1 15 16 </var>
    <var id="x81"> 1 2 8 13 15 </var>
    <var id="x82"> 8 16 </var>
    <var id="x83"> 8 15 </var>
    <var id="x84"> 2 8 13 14 16 </var>
    <var id="x85"> 0 1 8 13 14 </var>
    <var id="x86"> 0 4 8 </var>
    <var id="x87"> 4 10 </var>
    <var id="x88"> 0 3 9 </var>
    <var id="x89"> 2 3 </var>
    <var id="x90"> 0 2 4 8 9 </var>
    <var id="x91"> 0 8 </var>
    <var id="x92"> 2..4 8 </var>
    <var id="x93"> 0 7 11 13 </var>
    <var id="x94"> 0 7 13 16 </var>
    <var id="x95"> 0 15 16 </var>
    <var id="x96"> 2 7 11 16 17 </var>
    <var id="x97"> 0 7 11 15 17 </var>
    <var id="x98"> 11 16 17 </var>
    <var id="x99"> 2 11 13 15 </var>
    <var id="x100"> 2 13 15 16 </var>
    <var id="x101"> 3 4 12 16 </var>
    <var id="x102"> 3 7 13 16 </var>
    <var id="x103"> 2 3 7 12 13 16 </var>
    <var id="x104"> 1 4 7 12 </var>
    <var id="x105"> 2 4 12 13 </var>
    <var id="x106"> 1 7 </var>
    <var id="x107"> 3 16 </var>
    <var id="x108"> 1..3 12 13 </var>
    <var id="x109"> 1 11 </var>
    <var id="x110"> 3 11 16 17 </var>
    <var id="x111"> 0 8 13 </var>
    <var id="x112"> 1 3 16 </var>
    <var id="x113"> 1 3 8 13 </var>
    <var id="x114"> 8 13 16 17 </var>
    <var id="x115"> 0 1 8 13 </var>
    <var id="x116"> 8 13 16 </var>
    <var id="x117"> 4 6..8 12 </var>
    <var id="x118"> 4 8 12 </var>
    <var id="x119"> 7 8 17 </var>
    <var id="x120"> 4 6 8 </var>
    <var id="x121"> 5 8 17 </var>
    <var id="x122"> 6..8 10 17 </var>
    <var id="x123"> 10 12 </var>
    <var id="x124"> 4 5 8 </var>
    <var id="x125"> 6 8 </var>
    <var id="x126"> 3 6 10 14 </var>
    <var id="x127"> 2 3 8 </var>
    <var id="x128"> 2 3 5 14 </var>
    <var id="x129"> 2 3 6 14 </var>
    <var id="x130"> 3 6 8 10 </var>
    <var id="x131"> 2 3 10 </var>
    <var id="x132"> 2 5 8 9 </var>
    <var id="x133"> 3 11 13 </var>
    <var id="x134"> 3 4 8 12 </var>
    <var id="x135"> 3 10 13 14 </var>
    <var id="x136"> 3 8 12 13 </var>
    <var id="x137"> 3 11 14 </var>
    <var id="x138"> 8 11 14 </var>
    <var id="x139"> 3 8 10 11 </var>
    <var id="x140"> 8 12..14 </var>
  </variables>
  <constraints>
    <group>
      <allDifferent> %... </allDifferent>
      <args> x0 x1 x2 x3 x4 x5 x6 x7 </args>
      <args> x8 x9 x10 x11 x12 x13 x14 x15 </args>
      <args> x16 x17 x18 x19 x20 x21 x22 x23 </args>
      <args> x24 x25 x26 x27 x28 x29 x30 x31 </args>
      <args> x32 x33 x34 x35 x36 x37 x38 x39 </args>
      <args> x40 x41 x42 x43 x44 x45 x46 </args>
      <args> x47 x48 x49 x50 x51 x52 x53 </args>
      <args> x54 x55 x56 x57 x58 x59 x60 x61 </args>
      <args> x62 x63 x64 x65 x66 x67 x68 x69 </args>
      <args> x70 x71 x72 x73 x74 x75 x76 x77 </args>
      <args> x78 x79 x80 x81 x82 x83 x84 x85 </args>
      <args> x86 x87 x88 x89 x90 x91 x92 </args>
      <args> x93 x94 x95 x96 x97 x98 x99 x100 </args>
      <args> x101 x102 x103 x104 x105 x106 x107 x108 </args>
      <args> x109 x110 x111 x112 x113 x114 x115 x116 </args>
      <args> x117 x118 x119 x120 x121 x122 x123 x124 </args>
      <args> x125 x126 x127 x128 x129 x130 x131 x132 </args>
      <args> x133 x134 x135 x136 x137 x138 x139 x140 </args>
      <args> x8 x16 x47 x54 x62 x70 x78 x133 </args>
      <args> x0 x9 x17 x40 x86 x93 x117 x125 </args>
      <args> x1 x10 x18 x48 x101 x118 x134 </args>
      <args> x2 x19 x41 x71 x94 x102 x126 x135 </args>
      <args> x11 x24 x32 x42 x55 x103 x127 x136 </args>
      <args> x20 x25 x72 x79 x87 x104 x109 </args>
      <args> x12 x26 x43 x56 x63 x80 x88 x95 </args>
      <args> x3 x64 x73 x89 x96 x110 x128 x137 </args>
      <args> x4 x27 x49 x65 x74 x90 x105 x111 </args>
      <args> x21 x33 x66 x91 x97 x106 x119 x138 </args>
      <args> x13 x34 x44 x57 x67 x75 x112 x129 </args>
      <args> x14 x35 x45 x58 x81 x92 x113 x120 </args>
      <args> x5 x36 x59 x82 x98 x107 x121 </args>
      <args> x28 x37 x50 x60 x83 x122 x130 x139 </args>
      <args> x29 x38 x51 x68 x99 x108 x123 x131 </args>
      <args> x15 x22 x30 x52 x61 x69 x84 x114 </args>
      <args> x6 x23 x39 x53 x76 x85 x115 x140 </args>
      <args> x7 x31 x46 x77 x100 x116 x124 x132 </args>
    </group>
  </constraints>
</instance>

